(get-info :version)
; (:version "4.6.1")
; Started: 2018-07-18 14:40:11
; Silicon.buildVersion: 1.1-SNAPSHOT 116d251deeaf default 2018/07/12 12:02:11
; Input file: null
; Verifier id: 00
; ------------------------------------------------------------
; Begin preamble
; ////////// Static preamble
; 
; ; /z3config.smt2
(set-option :print-success true) ; Boogie: false
(set-option :global-decls true) ; Boogie: default
(set-option :auto_config false) ; Usually a good idea
(set-option :smt.mbqi false)
(set-option :model.v2 true)
(set-option :smt.phase_selection 0)
(set-option :smt.restart_strategy 0)
(set-option :smt.restart_factor |1.5|)
(set-option :smt.arith.random_initial_value true)
(set-option :smt.case_split 3)
(set-option :smt.delay_units true)
(set-option :smt.delay_units_threshold 16)
(set-option :nnf.sk_hack true)
(set-option :smt.qi.eager_threshold 100)
(set-option :smt.qi.cost "(+ weight generation)")
(set-option :type_check true)
(set-option :smt.bv.reflect true)
; 
; ; /preamble.smt2
(declare-datatypes () ((
    $Snap ($Snap.unit)
    ($Snap.combine ($Snap.first $Snap) ($Snap.second $Snap)))))
(declare-sort $Ref 0)
(declare-const $Ref.null $Ref)
(define-sort $Perm () Real)
(define-const $Perm.Write $Perm 1.0)
(define-const $Perm.No $Perm 0.0)
(define-fun $Perm.isValidVar ((p $Perm)) Bool
	(<= $Perm.No p))
(define-fun $Perm.isReadVar ((p $Perm) (ub $Perm)) Bool
    (and ($Perm.isValidVar p)
         (not (= p $Perm.No))
         (< p $Perm.Write)))
(define-fun $Perm.min ((p1 $Perm) (p2 $Perm)) Real
    (ite (<= p1 p2) p1 p2))
(define-fun $Math.min ((a Int) (b Int)) Int
    (ite (<= a b) a b))
(define-fun $Math.clip ((a Int)) Int
    (ite (< a 0) 0 a))
